M = 99999999.0;
numWorkers = 15;
numRoles = 5;
numNodes = 40;
wStart = [0, 0, 0, 0, 0, 0, 0, 0, 0, 0, 0, 0, 0, 0, 0, 90, 120, 60, 210, 150, 120, 60, 240, 90, 120, 480, 480, 480, 480, 480, 480, 480, 480, 480, 480, 480, 480, 480, 480, 480];
wEnd = [0, 0, 0, 0, 0, 0, 0, 0, 0, 0, 0, 0, 0, 0, 0, 330, 300, 390, 240, 390, 450, 330, 300, 450, 390, 480, 480, 480, 480, 480, 480, 480, 480, 480, 480, 480, 480, 480, 480, 480];
p = [0, 0, 0, 0, 0, 0, 0, 0, 0, 0, 0, 0, 0, 0, 0, 35.90657088524828, 24.650262766657608, 63.74643358663799, 57.723723205895816, 61.411878402156965, 63.362167897426666, 63.12729474461969, 41.40587039015844, 20.726369585780198, 58.84183318214905, 0, 0, 0, 0, 0, 0, 0, 0, 0, 0, 0, 0, 0, 0, 0];
e = [[0, 1, 0, 0, 1], [1, 0, 0, 0, 1], [0, 0, 1, 0, 0], [0, 0, 0, 1, 0], [0, 1, 0, 0, 0], [0, 0, 0, 1, 0], [1, 0, 0, 0, 0], [1, 0, 0, 0, 0], [0, 1, 0, 0, 0], [1, 0, 0, 0, 0], [0, 0, 1, 0, 0], [0, 0, 0, 0, 1], [0, 0, 0, 1, 0], [0, 0, 1, 0, 0], [0, 1, 0, 0, 0]];
d = [[0, 0, 2, 0, 0, 0, 0, 0, 0, 2], [0, 1, 1, 0, 1, 0, 2, 0, 2, 1], [1, 1, 0, 1, 1, 1, 1, 1, 1, 0], [0, 1, 1, 0, 1, 0, 0, 0, 0, 1], [2, 0, 1, 2, 0, 2, 1, 2, 1, 1]];
r = [1470, 1587, 531, 3985, 1658, 691, 881, 2921, 3294, 1581];
g = [[0, 0, 0, 0, 0, 0, 0, 0, 0, 0], [0, 0, 0, 0, 0, 0, 0, 0, 0, 0], [0, 0, 0, 0, 0, 0, 0, 0, 0, 0], [0, 0, 0, 0, 0, 0, 0, 0, 0, 0], [0, 0, 0, 0, 0, 0, 0, 0, 0, 0], [0, 0, 0, 0, 0, 0, 0, 0, 0, 0], [0, 0, 0, 0, 0, 0, 0, 0, 0, 0], [0, 0, 0, 0, 0, 0, 0, 0, 0, 0], [0, 0, 0, 0, 0, 0, 0, 0, 0, 0], [0, 0, 0, 0, 0, 0, 0, 0, 0, 0]];
t = [[0.0, 0.0, 0.0, 0.0, 0.0, 0.0, 0.0, 0.0, 0.0, 0.0, 0.0, 0.0, 0.0, 0.0, 0.0, 50.46367329116985, 46.67603011825995, 43.69780231304428, 31.493992608754333, 50.43111799574018, 50.1563258087885, 44.159450602604224, 19.30391501215516, 46.92361502738361, 7.963095130430508, 0.0, 0.0, 0.0, 0.0, 0.0, 0.0, 0.0, 0.0, 0.0, 0.0, 0.0, 0.0, 0.0, 0.0, 0.0], [0.0, 0.0, 0.0, 0.0, 0.0, 0.0, 0.0, 0.0, 0.0, 0.0, 0.0, 0.0, 0.0, 0.0, 0.0, 50.46367329116985, 46.67603011825995, 43.69780231304428, 31.493992608754333, 50.43111799574018, 50.1563258087885, 44.159450602604224, 19.30391501215516, 46.92361502738361, 7.963095130430508, 0.0, 0.0, 0.0, 0.0, 0.0, 0.0, 0.0, 0.0, 0.0, 0.0, 0.0, 0.0, 0.0, 0.0, 0.0], [0.0, 0.0, 0.0, 0.0, 0.0, 0.0, 0.0, 0.0, 0.0, 0.0, 0.0, 0.0, 0.0, 0.0, 0.0, 50.46367329116985, 46.67603011825995, 43.69780231304428, 31.493992608754333, 50.43111799574018, 50.1563258087885, 44.159450602604224, 19.30391501215516, 46.92361502738361, 7.963095130430508, 0.0, 0.0, 0.0, 0.0, 0.0, 0.0, 0.0, 0.0, 0.0, 0.0, 0.0, 0.0, 0.0, 0.0, 0.0], [0.0, 0.0, 0.0, 0.0, 0.0, 0.0, 0.0, 0.0, 0.0, 0.0, 0.0, 0.0, 0.0, 0.0, 0.0, 50.46367329116985, 46.67603011825995, 43.69780231304428, 31.493992608754333, 50.43111799574018, 50.1563258087885, 44.159450602604224, 19.30391501215516, 46.92361502738361, 7.963095130430508, 0.0, 0.0, 0.0, 0.0, 0.0, 0.0, 0.0, 0.0, 0.0, 0.0, 0.0, 0.0, 0.0, 0.0, 0.0], [0.0, 0.0, 0.0, 0.0, 0.0, 0.0, 0.0, 0.0, 0.0, 0.0, 0.0, 0.0, 0.0, 0.0, 0.0, 50.46367329116985, 46.67603011825995, 43.69780231304428, 31.493992608754333, 50.43111799574018, 50.1563258087885, 44.159450602604224, 19.30391501215516, 46.92361502738361, 7.963095130430508, 0.0, 0.0, 0.0, 0.0, 0.0, 0.0, 0.0, 0.0, 0.0, 0.0, 0.0, 0.0, 0.0, 0.0, 0.0], [0.0, 0.0, 0.0, 0.0, 0.0, 0.0, 0.0, 0.0, 0.0, 0.0, 0.0, 0.0, 0.0, 0.0, 0.0, 50.46367329116985, 46.67603011825995, 43.69780231304428, 31.493992608754333, 50.43111799574018, 50.1563258087885, 44.159450602604224, 19.30391501215516, 46.92361502738361, 7.963095130430508, 0.0, 0.0, 0.0, 0.0, 0.0, 0.0, 0.0, 0.0, 0.0, 0.0, 0.0, 0.0, 0.0, 0.0, 0.0], [0.0, 0.0, 0.0, 0.0, 0.0, 0.0, 0.0, 0.0, 0.0, 0.0, 0.0, 0.0, 0.0, 0.0, 0.0, 50.46367329116985, 46.67603011825995, 43.69780231304428, 31.493992608754333, 50.43111799574018, 50.1563258087885, 44.159450602604224, 19.30391501215516, 46.92361502738361, 7.963095130430508, 0.0, 0.0, 0.0, 0.0, 0.0, 0.0, 0.0, 0.0, 0.0, 0.0, 0.0, 0.0, 0.0, 0.0, 0.0], [0.0, 0.0, 0.0, 0.0, 0.0, 0.0, 0.0, 0.0, 0.0, 0.0, 0.0, 0.0, 0.0, 0.0, 0.0, 50.46367329116985, 46.67603011825995, 43.69780231304428, 31.493992608754333, 50.43111799574018, 50.1563258087885, 44.159450602604224, 19.30391501215516, 46.92361502738361, 7.963095130430508, 0.0, 0.0, 0.0, 0.0, 0.0, 0.0, 0.0, 0.0, 0.0, 0.0, 0.0, 0.0, 0.0, 0.0, 0.0], [0.0, 0.0, 0.0, 0.0, 0.0, 0.0, 0.0, 0.0, 0.0, 0.0, 0.0, 0.0, 0.0, 0.0, 0.0, 50.46367329116985, 46.67603011825995, 43.69780231304428, 31.493992608754333, 50.43111799574018, 50.1563258087885, 44.159450602604224, 19.30391501215516, 46.92361502738361, 7.963095130430508, 0.0, 0.0, 0.0, 0.0, 0.0, 0.0, 0.0, 0.0, 0.0, 0.0, 0.0, 0.0, 0.0, 0.0, 0.0], [0.0, 0.0, 0.0, 0.0, 0.0, 0.0, 0.0, 0.0, 0.0, 0.0, 0.0, 0.0, 0.0, 0.0, 0.0, 50.46367329116985, 46.67603011825995, 43.69780231304428, 31.493992608754333, 50.43111799574018, 50.1563258087885, 44.159450602604224, 19.30391501215516, 46.92361502738361, 7.963095130430508, 0.0, 0.0, 0.0, 0.0, 0.0, 0.0, 0.0, 0.0, 0.0, 0.0, 0.0, 0.0, 0.0, 0.0, 0.0], [0.0, 0.0, 0.0, 0.0, 0.0, 0.0, 0.0, 0.0, 0.0, 0.0, 0.0, 0.0, 0.0, 0.0, 0.0, 50.46367329116985, 46.67603011825995, 43.69780231304428, 31.493992608754333, 50.43111799574018, 50.1563258087885, 44.159450602604224, 19.30391501215516, 46.92361502738361, 7.963095130430508, 0.0, 0.0, 0.0, 0.0, 0.0, 0.0, 0.0, 0.0, 0.0, 0.0, 0.0, 0.0, 0.0, 0.0, 0.0], [0.0, 0.0, 0.0, 0.0, 0.0, 0.0, 0.0, 0.0, 0.0, 0.0, 0.0, 0.0, 0.0, 0.0, 0.0, 50.46367329116985, 46.67603011825995, 43.69780231304428, 31.493992608754333, 50.43111799574018, 50.1563258087885, 44.159450602604224, 19.30391501215516, 46.92361502738361, 7.963095130430508, 0.0, 0.0, 0.0, 0.0, 0.0, 0.0, 0.0, 0.0, 0.0, 0.0, 0.0, 0.0, 0.0, 0.0, 0.0], [0.0, 0.0, 0.0, 0.0, 0.0, 0.0, 0.0, 0.0, 0.0, 0.0, 0.0, 0.0, 0.0, 0.0, 0.0, 50.46367329116985, 46.67603011825995, 43.69780231304428, 31.493992608754333, 50.43111799574018, 50.1563258087885, 44.159450602604224, 19.30391501215516, 46.92361502738361, 7.963095130430508, 0.0, 0.0, 0.0, 0.0, 0.0, 0.0, 0.0, 0.0, 0.0, 0.0, 0.0, 0.0, 0.0, 0.0, 0.0], [0.0, 0.0, 0.0, 0.0, 0.0, 0.0, 0.0, 0.0, 0.0, 0.0, 0.0, 0.0, 0.0, 0.0, 0.0, 50.46367329116985, 46.67603011825995, 43.69780231304428, 31.493992608754333, 50.43111799574018, 50.1563258087885, 44.159450602604224, 19.30391501215516, 46.92361502738361, 7.963095130430508, 0.0, 0.0, 0.0, 0.0, 0.0, 0.0, 0.0, 0.0, 0.0, 0.0, 0.0, 0.0, 0.0, 0.0, 0.0], [0.0, 0.0, 0.0, 0.0, 0.0, 0.0, 0.0, 0.0, 0.0, 0.0, 0.0, 0.0, 0.0, 0.0, 0.0, 50.46367329116985, 46.67603011825995, 43.69780231304428, 31.493992608754333, 50.43111799574018, 50.1563258087885, 44.159450602604224, 19.30391501215516, 46.92361502738361, 7.963095130430508, 0.0, 0.0, 0.0, 0.0, 0.0, 0.0, 0.0, 0.0, 0.0, 0.0, 0.0, 0.0, 0.0, 0.0, 0.0], [50.46367329116985, 50.46367329116985, 50.46367329116985, 50.46367329116985, 50.46367329116985, 50.46367329116985, 50.46367329116985, 50.46367329116985, 50.46367329116985, 50.46367329116985, 50.46367329116985, 50.46367329116985, 50.46367329116985, 50.46367329116985, 50.46367329116985, 0.0, 3.829015860141363, 31.30076309873655, 30.50818758275346, 6.377386813397232, 44.45164120835133, 60.0, 31.604969683727724, 36.03557561953116, 50.013087147087234, 50.46367329116985, 50.46367329116985, 50.46367329116985, 50.46367329116985, 50.46367329116985, 50.46367329116985, 50.46367329116985, 50.46367329116985, 50.46367329116985, 50.46367329116985, 50.46367329116985, 50.46367329116985, 50.46367329116985, 50.46367329116985, 50.46367329116985], [46.67603011825995, 46.67603011825995, 46.67603011825995, 46.67603011825995, 46.67603011825995, 46.67603011825995, 46.67603011825995, 46.67603011825995, 46.67603011825995, 46.67603011825995, 46.67603011825995, 46.67603011825995, 46.67603011825995, 46.67603011825995, 46.67603011825995, 3.829015860141363, 0.0, 30.032990225701973, 27.895350931862335, 7.674658002535885, 43.39104156117855, 57.84574078517403, 27.779133248166033, 34.99272586684779, 46.36875749069479, 46.67603011825995, 46.67603011825995, 46.67603011825995, 46.67603011825995, 46.67603011825995, 46.67603011825995, 46.67603011825995, 46.67603011825995, 46.67603011825995, 46.67603011825995, 46.67603011825995, 46.67603011825995, 46.67603011825995, 46.67603011825995, 46.67603011825995], [43.69780231304428, 43.69780231304428, 43.69780231304428, 43.69780231304428, 43.69780231304428, 43.69780231304428, 43.69780231304428, 43.69780231304428, 43.69780231304428, 43.69780231304428, 43.69780231304428, 43.69780231304428, 43.69780231304428, 43.69780231304428, 43.69780231304428, 31.30076309873655, 30.032990225701973, 0.0, 12.368097865809725, 25.77346351511253, 13.433522139643776, 30.35056119360538, 33.86158735889137, 5.263239817778944, 38.397842948002385, 43.69780231304428, 43.69780231304428, 43.69780231304428, 43.69780231304428, 43.69780231304428, 43.69780231304428, 43.69780231304428, 43.69780231304428, 43.69780231304428, 43.69780231304428, 43.69780231304428, 43.69780231304428, 43.69780231304428, 43.69780231304428, 43.69780231304428], [31.493992608754333, 31.493992608754333, 31.493992608754333, 31.493992608754333, 31.493992608754333, 31.493992608754333, 31.493992608754333, 31.493992608754333, 31.493992608754333, 31.493992608754333, 31.493992608754333, 31.493992608754333, 31.493992608754333, 31.493992608754333, 31.493992608754333, 30.50818758275346, 27.895350931862335, 12.368097865809725, 0.0, 26.84799600443691, 22.2589479946602, 30.412091642378016, 22.3298799685098, 16.417561714564677, 26.748219073760968, 31.493992608754333, 31.493992608754333, 31.493992608754333, 31.493992608754333, 31.493992608754333, 31.493992608754333, 31.493992608754333, 31.493992608754333, 31.493992608754333, 31.493992608754333, 31.493992608754333, 31.493992608754333, 31.493992608754333, 31.493992608754333, 31.493992608754333], [50.43111799574018, 50.43111799574018, 50.43111799574018, 50.43111799574018, 50.43111799574018, 50.43111799574018, 50.43111799574018, 50.43111799574018, 50.43111799574018, 50.43111799574018, 50.43111799574018, 50.43111799574018, 50.43111799574018, 50.43111799574018, 50.43111799574018, 6.377386813397232, 7.674658002535885, 25.77346351511253, 26.84799600443691, 0.0, 38.64454680464288, 55.263132653543, 32.459466428894586, 30.26510110102935, 48.975122850086144, 50.43111799574018, 50.43111799574018, 50.43111799574018, 50.43111799574018, 50.43111799574018, 50.43111799574018, 50.43111799574018, 50.43111799574018, 50.43111799574018, 50.43111799574018, 50.43111799574018, 50.43111799574018, 50.43111799574018, 50.43111799574018, 50.43111799574018], [50.1563258087885, 50.1563258087885, 50.1563258087885, 50.1563258087885, 50.1563258087885, 50.1563258087885, 50.1563258087885, 50.1563258087885, 50.1563258087885, 50.1563258087885, 50.1563258087885, 50.1563258087885, 50.1563258087885, 50.1563258087885, 50.1563258087885, 44.45164120835133, 43.39104156117855, 13.433522139643776, 22.2589479946602, 38.64454680464288, 0.0, 21.97587812803231, 44.53827088917029, 8.418493042371896, 43.426477638227155, 50.1563258087885, 50.1563258087885, 50.1563258087885, 50.1563258087885, 50.1563258087885, 50.1563258087885, 50.1563258087885, 50.1563258087885, 50.1563258087885, 50.1563258087885, 50.1563258087885, 50.1563258087885, 50.1563258087885, 50.1563258087885, 50.1563258087885], [44.159450602604224, 44.159450602604224, 44.159450602604224, 44.159450602604224, 44.159450602604224, 44.159450602604224, 44.159450602604224, 44.159450602604224, 44.159450602604224, 44.159450602604224, 44.159450602604224, 44.159450602604224, 44.159450602604224, 44.159450602604224, 44.159450602604224, 60.0, 57.84574078517403, 30.35056119360538, 30.412091642378016, 55.263132653543, 21.97587812803231, 0.0, 47.607346350531614, 27.62926721942425, 36.21809145183987, 44.159450602604224, 44.159450602604224, 44.159450602604224, 44.159450602604224, 44.159450602604224, 44.159450602604224, 44.159450602604224, 44.159450602604224, 44.159450602604224, 44.159450602604224, 44.159450602604224, 44.159450602604224, 44.159450602604224, 44.159450602604224, 44.159450602604224], [19.30391501215516, 19.30391501215516, 19.30391501215516, 19.30391501215516, 19.30391501215516, 19.30391501215516, 19.30391501215516, 19.30391501215516, 19.30391501215516, 19.30391501215516, 19.30391501215516, 19.30391501215516, 19.30391501215516, 19.30391501215516, 19.30391501215516, 31.604969683727724, 27.779133248166033, 33.86158735889137, 22.3298799685098, 32.459466428894586, 44.53827088917029, 47.607346350531614, 0.0, 38.51200976528728, 21.130059123179535, 19.30391501215516, 19.30391501215516, 19.30391501215516, 19.30391501215516, 19.30391501215516, 19.30391501215516, 19.30391501215516, 19.30391501215516, 19.30391501215516, 19.30391501215516, 19.30391501215516, 19.30391501215516, 19.30391501215516, 19.30391501215516, 19.30391501215516], [46.92361502738361, 46.92361502738361, 46.92361502738361, 46.92361502738361, 46.92361502738361, 46.92361502738361, 46.92361502738361, 46.92361502738361, 46.92361502738361, 46.92361502738361, 46.92361502738361, 46.92361502738361, 46.92361502738361, 46.92361502738361, 46.92361502738361, 36.03557561953116, 34.99272586684779, 5.263239817778944, 16.417561714564677, 30.26510110102935, 8.418493042371896, 27.62926721942425, 38.51200976528728, 0.0, 41.040681245464995, 46.92361502738361, 46.92361502738361, 46.92361502738361, 46.92361502738361, 46.92361502738361, 46.92361502738361, 46.92361502738361, 46.92361502738361, 46.92361502738361, 46.92361502738361, 46.92361502738361, 46.92361502738361, 46.92361502738361, 46.92361502738361, 46.92361502738361], [7.963095130430508, 7.963095130430508, 7.963095130430508, 7.963095130430508, 7.963095130430508, 7.963095130430508, 7.963095130430508, 7.963095130430508, 7.963095130430508, 7.963095130430508, 7.963095130430508, 7.963095130430508, 7.963095130430508, 7.963095130430508, 7.963095130430508, 50.013087147087234, 46.36875749069479, 38.397842948002385, 26.748219073760968, 48.975122850086144, 43.426477638227155, 36.21809145183987, 21.130059123179535, 41.040681245464995, 0.0, 7.963095130430508, 7.963095130430508, 7.963095130430508, 7.963095130430508, 7.963095130430508, 7.963095130430508, 7.963095130430508, 7.963095130430508, 7.963095130430508, 7.963095130430508, 7.963095130430508, 7.963095130430508, 7.963095130430508, 7.963095130430508, 7.963095130430508], [0.0, 0.0, 0.0, 0.0, 0.0, 0.0, 0.0, 0.0, 0.0, 0.0, 0.0, 0.0, 0.0, 0.0, 0.0, 50.46367329116985, 46.67603011825995, 43.69780231304428, 31.493992608754333, 50.43111799574018, 50.1563258087885, 44.159450602604224, 19.30391501215516, 46.92361502738361, 7.963095130430508, 0.0, 0.0, 0.0, 0.0, 0.0, 0.0, 0.0, 0.0, 0.0, 0.0, 0.0, 0.0, 0.0, 0.0, 0.0], [0.0, 0.0, 0.0, 0.0, 0.0, 0.0, 0.0, 0.0, 0.0, 0.0, 0.0, 0.0, 0.0, 0.0, 0.0, 50.46367329116985, 46.67603011825995, 43.69780231304428, 31.493992608754333, 50.43111799574018, 50.1563258087885, 44.159450602604224, 19.30391501215516, 46.92361502738361, 7.963095130430508, 0.0, 0.0, 0.0, 0.0, 0.0, 0.0, 0.0, 0.0, 0.0, 0.0, 0.0, 0.0, 0.0, 0.0, 0.0], [0.0, 0.0, 0.0, 0.0, 0.0, 0.0, 0.0, 0.0, 0.0, 0.0, 0.0, 0.0, 0.0, 0.0, 0.0, 50.46367329116985, 46.67603011825995, 43.69780231304428, 31.493992608754333, 50.43111799574018, 50.1563258087885, 44.159450602604224, 19.30391501215516, 46.92361502738361, 7.963095130430508, 0.0, 0.0, 0.0, 0.0, 0.0, 0.0, 0.0, 0.0, 0.0, 0.0, 0.0, 0.0, 0.0, 0.0, 0.0], [0.0, 0.0, 0.0, 0.0, 0.0, 0.0, 0.0, 0.0, 0.0, 0.0, 0.0, 0.0, 0.0, 0.0, 0.0, 50.46367329116985, 46.67603011825995, 43.69780231304428, 31.493992608754333, 50.43111799574018, 50.1563258087885, 44.159450602604224, 19.30391501215516, 46.92361502738361, 7.963095130430508, 0.0, 0.0, 0.0, 0.0, 0.0, 0.0, 0.0, 0.0, 0.0, 0.0, 0.0, 0.0, 0.0, 0.0, 0.0], [0.0, 0.0, 0.0, 0.0, 0.0, 0.0, 0.0, 0.0, 0.0, 0.0, 0.0, 0.0, 0.0, 0.0, 0.0, 50.46367329116985, 46.67603011825995, 43.69780231304428, 31.493992608754333, 50.43111799574018, 50.1563258087885, 44.159450602604224, 19.30391501215516, 46.92361502738361, 7.963095130430508, 0.0, 0.0, 0.0, 0.0, 0.0, 0.0, 0.0, 0.0, 0.0, 0.0, 0.0, 0.0, 0.0, 0.0, 0.0], [0.0, 0.0, 0.0, 0.0, 0.0, 0.0, 0.0, 0.0, 0.0, 0.0, 0.0, 0.0, 0.0, 0.0, 0.0, 50.46367329116985, 46.67603011825995, 43.69780231304428, 31.493992608754333, 50.43111799574018, 50.1563258087885, 44.159450602604224, 19.30391501215516, 46.92361502738361, 7.963095130430508, 0.0, 0.0, 0.0, 0.0, 0.0, 0.0, 0.0, 0.0, 0.0, 0.0, 0.0, 0.0, 0.0, 0.0, 0.0], [0.0, 0.0, 0.0, 0.0, 0.0, 0.0, 0.0, 0.0, 0.0, 0.0, 0.0, 0.0, 0.0, 0.0, 0.0, 50.46367329116985, 46.67603011825995, 43.69780231304428, 31.493992608754333, 50.43111799574018, 50.1563258087885, 44.159450602604224, 19.30391501215516, 46.92361502738361, 7.963095130430508, 0.0, 0.0, 0.0, 0.0, 0.0, 0.0, 0.0, 0.0, 0.0, 0.0, 0.0, 0.0, 0.0, 0.0, 0.0], [0.0, 0.0, 0.0, 0.0, 0.0, 0.0, 0.0, 0.0, 0.0, 0.0, 0.0, 0.0, 0.0, 0.0, 0.0, 50.46367329116985, 46.67603011825995, 43.69780231304428, 31.493992608754333, 50.43111799574018, 50.1563258087885, 44.159450602604224, 19.30391501215516, 46.92361502738361, 7.963095130430508, 0.0, 0.0, 0.0, 0.0, 0.0, 0.0, 0.0, 0.0, 0.0, 0.0, 0.0, 0.0, 0.0, 0.0, 0.0], [0.0, 0.0, 0.0, 0.0, 0.0, 0.0, 0.0, 0.0, 0.0, 0.0, 0.0, 0.0, 0.0, 0.0, 0.0, 50.46367329116985, 46.67603011825995, 43.69780231304428, 31.493992608754333, 50.43111799574018, 50.1563258087885, 44.159450602604224, 19.30391501215516, 46.92361502738361, 7.963095130430508, 0.0, 0.0, 0.0, 0.0, 0.0, 0.0, 0.0, 0.0, 0.0, 0.0, 0.0, 0.0, 0.0, 0.0, 0.0], [0.0, 0.0, 0.0, 0.0, 0.0, 0.0, 0.0, 0.0, 0.0, 0.0, 0.0, 0.0, 0.0, 0.0, 0.0, 50.46367329116985, 46.67603011825995, 43.69780231304428, 31.493992608754333, 50.43111799574018, 50.1563258087885, 44.159450602604224, 19.30391501215516, 46.92361502738361, 7.963095130430508, 0.0, 0.0, 0.0, 0.0, 0.0, 0.0, 0.0, 0.0, 0.0, 0.0, 0.0, 0.0, 0.0, 0.0, 0.0], [0.0, 0.0, 0.0, 0.0, 0.0, 0.0, 0.0, 0.0, 0.0, 0.0, 0.0, 0.0, 0.0, 0.0, 0.0, 50.46367329116985, 46.67603011825995, 43.69780231304428, 31.493992608754333, 50.43111799574018, 50.1563258087885, 44.159450602604224, 19.30391501215516, 46.92361502738361, 7.963095130430508, 0.0, 0.0, 0.0, 0.0, 0.0, 0.0, 0.0, 0.0, 0.0, 0.0, 0.0, 0.0, 0.0, 0.0, 0.0], [0.0, 0.0, 0.0, 0.0, 0.0, 0.0, 0.0, 0.0, 0.0, 0.0, 0.0, 0.0, 0.0, 0.0, 0.0, 50.46367329116985, 46.67603011825995, 43.69780231304428, 31.493992608754333, 50.43111799574018, 50.1563258087885, 44.159450602604224, 19.30391501215516, 46.92361502738361, 7.963095130430508, 0.0, 0.0, 0.0, 0.0, 0.0, 0.0, 0.0, 0.0, 0.0, 0.0, 0.0, 0.0, 0.0, 0.0, 0.0], [0.0, 0.0, 0.0, 0.0, 0.0, 0.0, 0.0, 0.0, 0.0, 0.0, 0.0, 0.0, 0.0, 0.0, 0.0, 50.46367329116985, 46.67603011825995, 43.69780231304428, 31.493992608754333, 50.43111799574018, 50.1563258087885, 44.159450602604224, 19.30391501215516, 46.92361502738361, 7.963095130430508, 0.0, 0.0, 0.0, 0.0, 0.0, 0.0, 0.0, 0.0, 0.0, 0.0, 0.0, 0.0, 0.0, 0.0, 0.0], [0.0, 0.0, 0.0, 0.0, 0.0, 0.0, 0.0, 0.0, 0.0, 0.0, 0.0, 0.0, 0.0, 0.0, 0.0, 50.46367329116985, 46.67603011825995, 43.69780231304428, 31.493992608754333, 50.43111799574018, 50.1563258087885, 44.159450602604224, 19.30391501215516, 46.92361502738361, 7.963095130430508, 0.0, 0.0, 0.0, 0.0, 0.0, 0.0, 0.0, 0.0, 0.0, 0.0, 0.0, 0.0, 0.0, 0.0, 0.0], [0.0, 0.0, 0.0, 0.0, 0.0, 0.0, 0.0, 0.0, 0.0, 0.0, 0.0, 0.0, 0.0, 0.0, 0.0, 50.46367329116985, 46.67603011825995, 43.69780231304428, 31.493992608754333, 50.43111799574018, 50.1563258087885, 44.159450602604224, 19.30391501215516, 46.92361502738361, 7.963095130430508, 0.0, 0.0, 0.0, 0.0, 0.0, 0.0, 0.0, 0.0, 0.0, 0.0, 0.0, 0.0, 0.0, 0.0, 0.0]];
